GLPSOL--GLPK LP/MIP Solver 5.0
Parameter(s) specified in the command line:
 --lp ../modeles/15_104.lp --log 15_104.log
Reading problem data from '../modeles/15_104.lp'...
1621 rows, 3150 columns, 10965 non-zeros
1560 integer variables, all of which are binary
4792 lines were read
GLPK Integer Optimizer 5.0
1621 rows, 3150 columns, 10965 non-zeros
1560 integer variables, all of which are binary
Preprocessing...
1530 constraint coefficient(s) were reduced
1621 rows, 3135 columns, 10950 non-zeros
1560 integer variables, all of which are binary
Scaling...
 A: min|aij| =  1.479e-03  max|aij| =  4.000e+00  ratio =  2.704e+03
GM: min|aij| =  1.387e-01  max|aij| =  7.211e+00  ratio =  5.200e+01
EQ: min|aij| =  1.923e-02  max|aij| =  1.000e+00  ratio =  5.200e+01
2N: min|aij| =  1.562e-02  max|aij| =  1.690e+00  ratio =  1.082e+02
Constructing initial basis...
Size of triangular part is 1621
Solving LP relaxation...
GLPK Simplex Optimizer 5.0
1621 rows, 3135 columns, 10950 non-zeros
      0: obj =   3.000000000e+01 inf =   7.450e+01 (31)
    224: obj =  -3.790486767e-01 inf =   0.000e+00 (0)
*   665: obj =  -3.863905325e+00 inf =   0.000e+00 (0) 1
OPTIMAL LP SOLUTION FOUND
Integer optimization begins...
Long-step dual simplex will be used
+   665: mip =     not found yet >=              -inf        (1; 0)
+   674: >>>>>  -3.863905325e+00 >=  -3.863905325e+00 < 0.1% (10; 0)
+   674: mip =  -3.863905325e+00 >=     tree is empty   0.0% (0; 19)
INTEGER OPTIMAL SOLUTION FOUND
Time used:   0.1 secs
Memory used: 4.7 Mb (4976797 bytes)
